solution status: optimal solution found
objective value:                     144667.189247857
d11(0,0)                                            1 	(obj:0)
d11(1,1)                                            1 	(obj:0)
d11(1,2)                                            1 	(obj:0)
d11(2,5)                                            1 	(obj:0)
d11(3,7)                                            1 	(obj:0)
d11(3,8)                                            1 	(obj:0)
d11(3,9)                                            1 	(obj:0)
d11(3,10)                                           1 	(obj:0)
d11(3,11)                                           1 	(obj:0)
d11(3,12)                                           1 	(obj:0)
d11(3,13)                                           1 	(obj:0)
d11(4,15)                                           1 	(obj:0)
d11(4,17)                                           1 	(obj:0)
d11(4,19)                                           1 	(obj:0)
d11(4,23)                                           1 	(obj:0)
d11(4,25)                                           1 	(obj:0)
d11(4,27)                                           1 	(obj:0)
d11(4,29)                                           1 	(obj:0)
d12(2,4)                                            1 	(obj:0)
d12(2,6)                                            1 	(obj:0)
d12(4,16)                                           1 	(obj:0)
d12(4,18)                                           1 	(obj:0)
d12(4,20)                                           1 	(obj:0)
d12(4,22)                                           1 	(obj:0)
d12(4,24)                                           1 	(obj:0)
d12(4,26)                                           1 	(obj:0)
d12(4,28)                                           1 	(obj:0)
d12(4,30)                                           1 	(obj:0)
d21(2,3)                                            1 	(obj:0)
d21(3,7)                                            1 	(obj:0)
d21(3,8)                                            1 	(obj:0)
d21(3,9)                                            1 	(obj:0)
d21(3,11)                                           1 	(obj:0)
d21(4,15)                                           1 	(obj:0)
d21(4,16)                                           1 	(obj:0)
d21(4,17)                                           1 	(obj:0)
d21(4,18)                                           1 	(obj:0)
d21(4,19)                                           1 	(obj:0)
d21(4,20)                                           1 	(obj:0)
d21(4,23)                                           1 	(obj:0)
y2(4,16)                             1385.48851144895 	(obj:0)
y2(4,18)                             1385.48851144895 	(obj:0)
y2(4,20)                             1385.48851144895 	(obj:0)
y2(4,22)                             1385.48851144901 	(obj:0)
y2(4,24)                             1385.48851144898 	(obj:0)
y2(4,26)                             1385.48851144901 	(obj:0)
y2(4,28)                             1385.48851144901 	(obj:0)
y2(4,30)                             1385.48851144901 	(obj:0)
STE(1,1)                             3345.78591412192 	(obj:0)
STE(0,0)                                         6300 	(obj:0)
STE(1,2)                             5004.03581301074 	(obj:0)
STE(2,3)                             2841.78591412192 	(obj:0)
STE(2,4)                             4157.99999999843 	(obj:0)
STE(2,5)                              4500.0358130108 	(obj:0)
STE(2,6)                             5816.24989888724 	(obj:0)
STE(3,7)                             679.536015233075 	(obj:0)
STE(3,8)                             2337.78591412192 	(obj:0)
STE(3,9)                             1995.75010110958 	(obj:0)
STE(3,10)                            3653.99999999849 	(obj:0)
STE(3,11)                            2337.78591412196 	(obj:0)
STE(3,12)                             3996.0358130108 	(obj:0)
STE(3,13)                             3653.9999999984 	(obj:0)
STE(3,14)                            5312.24989888724 	(obj:0)
STE(4,15)                            175.536015233014 	(obj:0)
STE(4,16)                            1491.75010110958 	(obj:0)
STE(4,17)                            1833.78591412198 	(obj:0)
STE(4,18)                            3149.99999999843 	(obj:0)
STE(4,19)                            1491.75010110964 	(obj:0)
STE(4,20)                            2807.96418698609 	(obj:0)
STE(4,21)                            3149.99999999849 	(obj:0)
STE(4,22)                            4466.21408587505 	(obj:0)
STE(4,23)                            1833.78591412202 	(obj:0)
STE(4,24)                            3149.99999999848 	(obj:0)
STE(4,25)                             3492.0358130108 	(obj:0)
STE(4,26)                            4808.24989888736 	(obj:0)
STE(4,27)                             3149.9999999984 	(obj:0)
STE(4,28)                            4466.21408587495 	(obj:0)
STE(4,29)                            4808.24989888724 	(obj:0)
STE(4,30)                             6124.4639847638 	(obj:0)
y1(3,11)                             1492.42490899996 	(obj:0)
y1(3,13)                             1492.42490899996 	(obj:0)
AVE(1)                               3265.91696791192 	(obj:0)
WB(2)                                3332.74178563731 	(obj:0)
AVE(2)                               3332.74178563731 	(obj:0)
AVE(3)                               3444.11697932125 	(obj:0)
WB(4)                                3399.56511093315 	(obj:0)
AVE(4)                               3399.56511093778 	(obj:0)
WG(1)                                3265.91696791192 	(obj:10)
WG(3)                                3444.11697932125 	(obj:10)
WG(4)                            4.63285464413312e-009 	(obj:10)
BG(1)                                 1657.6895803435 	(obj:10)
BG(2)                                2673.40993877551 	(obj:10)
BG(3)                                752.175519658342 	(obj:10)
BG(4)                                2673.40993877088 	(obj:10)
y1(1,1)                              2205.19267729027 	(obj:0)
y1(1,2)                              712.767768290335 	(obj:0)
y1(3,7)                              1492.42490899996 	(obj:0)
y1(3,9)                              1492.42490899996 	(obj:0)
y2(2,4)                              1385.48851144895 	(obj:0)
y2(2,6)                              1385.48851144895 	(obj:0)
